p cnf 23 73
-1 -2 0
-1 -3 0
-2 -3 0
1 2 3 0
-4 -5 0
4 5 0
-6 -7 0
-6 -8 0
-7 -8 0
6 7 8 0
-6 -9 0
-6 -10 0
-9 -10 0
6 9 10 0
-11 -12 0
11 12 0
-1 -13 0
1 13 0
-9 -14 0
-9 -15 0
-9 -16 0
-9 -17 0
-14 -15 0
-14 -16 0
-14 -17 0
-15 -16 0
-15 -17 0
-16 -17 0
9 14 15 16 17 0
-7 -18 0
-7 -19 0
-18 -19 0
7 18 19 0
-2 -14 0
-2 -20 0
-2 -21 0
-2 -22 0
-14 -20 0
-14 -21 0
-14 -22 0
-20 -21 0
-20 -22 0
-21 -22 0
2 14 20 21 22 0
-13 -15 0
-13 -18 0
-13 -20 0
-15 -18 0
-15 -20 0
-18 -20 0
13 15 18 20 0
-4 -8 0
-4 -10 0
-4 -11 0
-8 -10 0
-8 -11 0
-10 -11 0
4 8 10 11 0
-3 -5 0
-3 -16 0
-3 -21 0
-5 -16 0
-5 -21 0
-16 -21 0
3 5 16 21 0
-12 -22 0
-12 -23 0
-22 -23 0
12 22 23 0
-17 -19 0
-17 -23 0
-19 -23 0
17 19 23 0
